c book.min
c
p min 7 2400
c
n 1 100
n 6 50
n 7 -150
c
a 1 2 0 2 1
a 1 2 0 2 2
a 1 2 0 2 3
a 1 2 0 2 4
a 1 2 0 2 5
a 1 2 0 2 6
a 1 2 0 2 7
a 1 2 0 2 8
a 1 2 0 2 9
a 1 2 0 2 10
a 1 2 0 2 11
a 1 2 0 2 12
a 1 2 0 2 13
a 1 2 0 2 14
a 1 2 0 2 15
a 1 2 0 2 16
a 1 2 0 2 17
a 1 2 0 2 18
a 1 2 0 2 19
a 1 2 0 2 20
a 1 2 0 2 21
a 1 2 0 2 22
a 1 2 0 2 23
a 1 2 0 2 24
a 1 2 0 2 25
a 1 2 0 2 26
a 1 2 0 2 27
a 1 2 0 2 28
a 1 2 0 2 29
a 1 2 0 2 30
a 1 2 0 2 31
a 1 2 0 2 32
a 1 2 0 2 33
a 1 2 0 2 34
a 1 2 0 2 35
a 1 2 0 2 36
a 1 2 0 2 37
a 1 2 0 2 38
a 1 2 0 2 39
a 1 2 0 2 40
a 1 2 0 2 41
a 1 2 0 2 42
a 1 2 0 2 43
a 1 2 0 2 44
a 1 2 0 2 45
a 1 2 0 2 46
a 1 2 0 2 47
a 1 2 0 2 48
a 1 2 0 2 49
a 1 2 0 2 50
a 1 2 0 2 51
a 1 2 0 2 52
a 1 2 0 2 53
a 1 2 0 2 54
a 1 2 0 2 55
a 1 2 0 2 56
a 1 2 0 2 57
a 1 2 0 2 58
a 1 2 0 2 59
a 1 2 0 2 60
a 1 2 0 2 61
a 1 2 0 2 62
a 1 2 0 2 63
a 1 2 0 2 64
a 1 2 0 2 65
a 1 2 0 2 66
a 1 2 0 2 67
a 1 2 0 2 68
a 1 2 0 2 69
a 1 2 0 2 70
a 1 2 0 2 71
a 1 2 0 2 72
a 1 2 0 2 73
a 1 2 0 2 74
a 1 2 0 2 75
a 1 2 0 2 76
a 1 2 0 2 77
a 1 2 0 2 78
a 1 2 0 2 79
a 1 2 0 2 80
a 1 2 0 2 81
a 1 2 0 2 82
a 1 2 0 2 83
a 1 2 0 2 84
a 1 2 0 2 85
a 1 2 0 2 86
a 1 2 0 2 87
a 1 2 0 2 88
a 1 2 0 2 89
a 1 2 0 2 90
a 1 2 0 2 91
a 1 2 0 2 92
a 1 2 0 2 93
a 1 2 0 2 94
a 1 2 0 2 95
a 1 2 0 2 96
a 1 2 0 2 97
a 1 2 0 2 98
a 1 2 0 2 99
a 1 2 0 2 100
a 2 1 0 2 1
a 2 1 0 2 2
a 2 1 0 2 3
a 2 1 0 2 4
a 2 1 0 2 5
a 2 1 0 2 6
a 2 1 0 2 7
a 2 1 0 2 8
a 2 1 0 2 9
a 2 1 0 2 10
a 2 1 0 2 11
a 2 1 0 2 12
a 2 1 0 2 13
a 2 1 0 2 14
a 2 1 0 2 15
a 2 1 0 2 16
a 2 1 0 2 17
a 2 1 0 2 18
a 2 1 0 2 19
a 2 1 0 2 20
a 2 1 0 2 21
a 2 1 0 2 22
a 2 1 0 2 23
a 2 1 0 2 24
a 2 1 0 2 25
a 2 1 0 2 26
a 2 1 0 2 27
a 2 1 0 2 28
a 2 1 0 2 29
a 2 1 0 2 30
a 2 1 0 2 31
a 2 1 0 2 32
a 2 1 0 2 33
a 2 1 0 2 34
a 2 1 0 2 35
a 2 1 0 2 36
a 2 1 0 2 37
a 2 1 0 2 38
a 2 1 0 2 39
a 2 1 0 2 40
a 2 1 0 2 41
a 2 1 0 2 42
a 2 1 0 2 43
a 2 1 0 2 44
a 2 1 0 2 45
a 2 1 0 2 46
a 2 1 0 2 47
a 2 1 0 2 48
a 2 1 0 2 49
a 2 1 0 2 50
a 2 1 0 2 51
a 2 1 0 2 52
a 2 1 0 2 53
a 2 1 0 2 54
a 2 1 0 2 55
a 2 1 0 2 56
a 2 1 0 2 57
a 2 1 0 2 58
a 2 1 0 2 59
a 2 1 0 2 60
a 2 1 0 2 61
a 2 1 0 2 62
a 2 1 0 2 63
a 2 1 0 2 64
a 2 1 0 2 65
a 2 1 0 2 66
a 2 1 0 2 67
a 2 1 0 2 68
a 2 1 0 2 69
a 2 1 0 2 70
a 2 1 0 2 71
a 2 1 0 2 72
a 2 1 0 2 73
a 2 1 0 2 74
a 2 1 0 2 75
a 2 1 0 2 76
a 2 1 0 2 77
a 2 1 0 2 78
a 2 1 0 2 79
a 2 1 0 2 80
a 2 1 0 2 81
a 2 1 0 2 82
a 2 1 0 2 83
a 2 1 0 2 84
a 2 1 0 2 85
a 2 1 0 2 86
a 2 1 0 2 87
a 2 1 0 2 88
a 2 1 0 2 89
a 2 1 0 2 90
a 2 1 0 2 91
a 2 1 0 2 92
a 2 1 0 2 93
a 2 1 0 2 94
a 2 1 0 2 95
a 2 1 0 2 96
a 2 1 0 2 97
a 2 1 0 2 98
a 2 1 0 2 99
a 2 1 0 2 100
c
a 1 3 0 2 1
a 1 3 0 2 2
a 1 3 0 2 3
a 1 3 0 2 4
a 1 3 0 2 5
a 1 3 0 2 6
a 1 3 0 2 7
a 1 3 0 2 8
a 1 3 0 2 9
a 1 3 0 2 10
a 1 3 0 2 11
a 1 3 0 2 12
a 1 3 0 2 13
a 1 3 0 2 14
a 1 3 0 2 15
a 1 3 0 2 16
a 1 3 0 2 17
a 1 3 0 2 18
a 1 3 0 2 19
a 1 3 0 2 20
a 1 3 0 2 21
a 1 3 0 2 22
a 1 3 0 2 23
a 1 3 0 2 24
a 1 3 0 2 25
a 1 3 0 2 26
a 1 3 0 2 27
a 1 3 0 2 28
a 1 3 0 2 29
a 1 3 0 2 30
a 1 3 0 2 31
a 1 3 0 2 32
a 1 3 0 2 33
a 1 3 0 2 34
a 1 3 0 2 35
a 1 3 0 2 36
a 1 3 0 2 37
a 1 3 0 2 38
a 1 3 0 2 39
a 1 3 0 2 40
a 1 3 0 2 41
a 1 3 0 2 42
a 1 3 0 2 43
a 1 3 0 2 44
a 1 3 0 2 45
a 1 3 0 2 46
a 1 3 0 2 47
a 1 3 0 2 48
a 1 3 0 2 49
a 1 3 0 2 50
a 1 3 0 2 51
a 1 3 0 2 52
a 1 3 0 2 53
a 1 3 0 2 54
a 1 3 0 2 55
a 1 3 0 2 56
a 1 3 0 2 57
a 1 3 0 2 58
a 1 3 0 2 59
a 1 3 0 2 60
a 1 3 0 2 61
a 1 3 0 2 62
a 1 3 0 2 63
a 1 3 0 2 64
a 1 3 0 2 65
a 1 3 0 2 66
a 1 3 0 2 67
a 1 3 0 2 68
a 1 3 0 2 69
a 1 3 0 2 70
a 1 3 0 2 71
a 1 3 0 2 72
a 1 3 0 2 73
a 1 3 0 2 74
a 1 3 0 2 75
a 1 3 0 2 76
a 1 3 0 2 77
a 1 3 0 2 78
a 1 3 0 2 79
a 1 3 0 2 80
a 1 3 0 2 81
a 1 3 0 2 82
a 1 3 0 2 83
a 1 3 0 2 84
a 1 3 0 2 85
a 1 3 0 2 86
a 1 3 0 2 87
a 1 3 0 2 88
a 1 3 0 2 89
a 1 3 0 2 90
a 1 3 0 2 91
a 1 3 0 2 92
a 1 3 0 2 93
a 1 3 0 2 94
a 1 3 0 2 95
a 1 3 0 2 96
a 1 3 0 2 97
a 1 3 0 2 98
a 1 3 0 2 99
a 1 3 0 2 100
a 3 1 0 2 1
a 3 1 0 2 2
a 3 1 0 2 3
a 3 1 0 2 4
a 3 1 0 2 5
a 3 1 0 2 6
a 3 1 0 2 7
a 3 1 0 2 8
a 3 1 0 2 9
a 3 1 0 2 10
a 3 1 0 2 11
a 3 1 0 2 12
a 3 1 0 2 13
a 3 1 0 2 14
a 3 1 0 2 15
a 3 1 0 2 16
a 3 1 0 2 17
a 3 1 0 2 18
a 3 1 0 2 19
a 3 1 0 2 20
a 3 1 0 2 21
a 3 1 0 2 22
a 3 1 0 2 23
a 3 1 0 2 24
a 3 1 0 2 25
a 3 1 0 2 26
a 3 1 0 2 27
a 3 1 0 2 28
a 3 1 0 2 29
a 3 1 0 2 30
a 3 1 0 2 31
a 3 1 0 2 32
a 3 1 0 2 33
a 3 1 0 2 34
a 3 1 0 2 35
a 3 1 0 2 36
a 3 1 0 2 37
a 3 1 0 2 38
a 3 1 0 2 39
a 3 1 0 2 40
a 3 1 0 2 41
a 3 1 0 2 42
a 3 1 0 2 43
a 3 1 0 2 44
a 3 1 0 2 45
a 3 1 0 2 46
a 3 1 0 2 47
a 3 1 0 2 48
a 3 1 0 2 49
a 3 1 0 2 50
a 3 1 0 2 51
a 3 1 0 2 52
a 3 1 0 2 53
a 3 1 0 2 54
a 3 1 0 2 55
a 3 1 0 2 56
a 3 1 0 2 57
a 3 1 0 2 58
a 3 1 0 2 59
a 3 1 0 2 60
a 3 1 0 2 61
a 3 1 0 2 62
a 3 1 0 2 63
a 3 1 0 2 64
a 3 1 0 2 65
a 3 1 0 2 66
a 3 1 0 2 67
a 3 1 0 2 68
a 3 1 0 2 69
a 3 1 0 2 70
a 3 1 0 2 71
a 3 1 0 2 72
a 3 1 0 2 73
a 3 1 0 2 74
a 3 1 0 2 75
a 3 1 0 2 76
a 3 1 0 2 77
a 3 1 0 2 78
a 3 1 0 2 79
a 3 1 0 2 80
a 3 1 0 2 81
a 3 1 0 2 82
a 3 1 0 2 83
a 3 1 0 2 84
a 3 1 0 2 85
a 3 1 0 2 86
a 3 1 0 2 87
a 3 1 0 2 88
a 3 1 0 2 89
a 3 1 0 2 90
a 3 1 0 2 91
a 3 1 0 2 92
a 3 1 0 2 93
a 3 1 0 2 94
a 3 1 0 2 95
a 3 1 0 2 96
a 3 1 0 2 97
a 3 1 0 2 98
a 3 1 0 2 99
a 3 1 0 2 100
c
a 2 3 0 2 1
a 2 3 0 2 2
a 2 3 0 2 3
a 2 3 0 2 4
a 2 3 0 2 5
a 2 3 0 2 6
a 2 3 0 2 7
a 2 3 0 2 8
a 2 3 0 2 9
a 2 3 0 2 10
a 2 3 0 2 11
a 2 3 0 2 12
a 2 3 0 2 13
a 2 3 0 2 14
a 2 3 0 2 15
a 2 3 0 2 16
a 2 3 0 2 17
a 2 3 0 2 18
a 2 3 0 2 19
a 2 3 0 2 20
a 2 3 0 2 21
a 2 3 0 2 22
a 2 3 0 2 23
a 2 3 0 2 24
a 2 3 0 2 25
a 2 3 0 2 26
a 2 3 0 2 27
a 2 3 0 2 28
a 2 3 0 2 29
a 2 3 0 2 30
a 2 3 0 2 31
a 2 3 0 2 32
a 2 3 0 2 33
a 2 3 0 2 34
a 2 3 0 2 35
a 2 3 0 2 36
a 2 3 0 2 37
a 2 3 0 2 38
a 2 3 0 2 39
a 2 3 0 2 40
a 2 3 0 2 41
a 2 3 0 2 42
a 2 3 0 2 43
a 2 3 0 2 44
a 2 3 0 2 45
a 2 3 0 2 46
a 2 3 0 2 47
a 2 3 0 2 48
a 2 3 0 2 49
a 2 3 0 2 50
a 2 3 0 2 51
a 2 3 0 2 52
a 2 3 0 2 53
a 2 3 0 2 54
a 2 3 0 2 55
a 2 3 0 2 56
a 2 3 0 2 57
a 2 3 0 2 58
a 2 3 0 2 59
a 2 3 0 2 60
a 2 3 0 2 61
a 2 3 0 2 62
a 2 3 0 2 63
a 2 3 0 2 64
a 2 3 0 2 65
a 2 3 0 2 66
a 2 3 0 2 67
a 2 3 0 2 68
a 2 3 0 2 69
a 2 3 0 2 70
a 2 3 0 2 71
a 2 3 0 2 72
a 2 3 0 2 73
a 2 3 0 2 74
a 2 3 0 2 75
a 2 3 0 2 76
a 2 3 0 2 77
a 2 3 0 2 78
a 2 3 0 2 79
a 2 3 0 2 80
a 2 3 0 2 81
a 2 3 0 2 82
a 2 3 0 2 83
a 2 3 0 2 84
a 2 3 0 2 85
a 2 3 0 2 86
a 2 3 0 2 87
a 2 3 0 2 88
a 2 3 0 2 89
a 2 3 0 2 90
a 2 3 0 2 91
a 2 3 0 2 92
a 2 3 0 2 93
a 2 3 0 2 94
a 2 3 0 2 95
a 2 3 0 2 96
a 2 3 0 2 97
a 2 3 0 2 98
a 2 3 0 2 99
a 2 3 0 2 100
a 3 2 0 2 1
a 3 2 0 2 2
a 3 2 0 2 3
a 3 2 0 2 4
a 3 2 0 2 5
a 3 2 0 2 6
a 3 2 0 2 7
a 3 2 0 2 8
a 3 2 0 2 9
a 3 2 0 2 10
a 3 2 0 2 11
a 3 2 0 2 12
a 3 2 0 2 13
a 3 2 0 2 14
a 3 2 0 2 15
a 3 2 0 2 16
a 3 2 0 2 17
a 3 2 0 2 18
a 3 2 0 2 19
a 3 2 0 2 20
a 3 2 0 2 21
a 3 2 0 2 22
a 3 2 0 2 23
a 3 2 0 2 24
a 3 2 0 2 25
a 3 2 0 2 26
a 3 2 0 2 27
a 3 2 0 2 28
a 3 2 0 2 29
a 3 2 0 2 30
a 3 2 0 2 31
a 3 2 0 2 32
a 3 2 0 2 33
a 3 2 0 2 34
a 3 2 0 2 35
a 3 2 0 2 36
a 3 2 0 2 37
a 3 2 0 2 38
a 3 2 0 2 39
a 3 2 0 2 40
a 3 2 0 2 41
a 3 2 0 2 42
a 3 2 0 2 43
a 3 2 0 2 44
a 3 2 0 2 45
a 3 2 0 2 46
a 3 2 0 2 47
a 3 2 0 2 48
a 3 2 0 2 49
a 3 2 0 2 50
a 3 2 0 2 51
a 3 2 0 2 52
a 3 2 0 2 53
a 3 2 0 2 54
a 3 2 0 2 55
a 3 2 0 2 56
a 3 2 0 2 57
a 3 2 0 2 58
a 3 2 0 2 59
a 3 2 0 2 60
a 3 2 0 2 61
a 3 2 0 2 62
a 3 2 0 2 63
a 3 2 0 2 64
a 3 2 0 2 65
a 3 2 0 2 66
a 3 2 0 2 67
a 3 2 0 2 68
a 3 2 0 2 69
a 3 2 0 2 70
a 3 2 0 2 71
a 3 2 0 2 72
a 3 2 0 2 73
a 3 2 0 2 74
a 3 2 0 2 75
a 3 2 0 2 76
a 3 2 0 2 77
a 3 2 0 2 78
a 3 2 0 2 79
a 3 2 0 2 80
a 3 2 0 2 81
a 3 2 0 2 82
a 3 2 0 2 83
a 3 2 0 2 84
a 3 2 0 2 85
a 3 2 0 2 86
a 3 2 0 2 87
a 3 2 0 2 88
a 3 2 0 2 89
a 3 2 0 2 90
a 3 2 0 2 91
a 3 2 0 2 92
a 3 2 0 2 93
a 3 2 0 2 94
a 3 2 0 2 95
a 3 2 0 2 96
a 3 2 0 2 97
a 3 2 0 2 98
a 3 2 0 2 99
a 3 2 0 2 100
c
a 2 4 0 2 1
a 2 4 0 2 2
a 2 4 0 2 3
a 2 4 0 2 4
a 2 4 0 2 5
a 2 4 0 2 6
a 2 4 0 2 7
a 2 4 0 2 8
a 2 4 0 2 9
a 2 4 0 2 10
a 2 4 0 2 11
a 2 4 0 2 12
a 2 4 0 2 13
a 2 4 0 2 14
a 2 4 0 2 15
a 2 4 0 2 16
a 2 4 0 2 17
a 2 4 0 2 18
a 2 4 0 2 19
a 2 4 0 2 20
a 2 4 0 2 21
a 2 4 0 2 22
a 2 4 0 2 23
a 2 4 0 2 24
a 2 4 0 2 25
a 2 4 0 2 26
a 2 4 0 2 27
a 2 4 0 2 28
a 2 4 0 2 29
a 2 4 0 2 30
a 2 4 0 2 31
a 2 4 0 2 32
a 2 4 0 2 33
a 2 4 0 2 34
a 2 4 0 2 35
a 2 4 0 2 36
a 2 4 0 2 37
a 2 4 0 2 38
a 2 4 0 2 39
a 2 4 0 2 40
a 2 4 0 2 41
a 2 4 0 2 42
a 2 4 0 2 43
a 2 4 0 2 44
a 2 4 0 2 45
a 2 4 0 2 46
a 2 4 0 2 47
a 2 4 0 2 48
a 2 4 0 2 49
a 2 4 0 2 50
a 2 4 0 2 51
a 2 4 0 2 52
a 2 4 0 2 53
a 2 4 0 2 54
a 2 4 0 2 55
a 2 4 0 2 56
a 2 4 0 2 57
a 2 4 0 2 58
a 2 4 0 2 59
a 2 4 0 2 60
a 2 4 0 2 61
a 2 4 0 2 62
a 2 4 0 2 63
a 2 4 0 2 64
a 2 4 0 2 65
a 2 4 0 2 66
a 2 4 0 2 67
a 2 4 0 2 68
a 2 4 0 2 69
a 2 4 0 2 70
a 2 4 0 2 71
a 2 4 0 2 72
a 2 4 0 2 73
a 2 4 0 2 74
a 2 4 0 2 75
a 2 4 0 2 76
a 2 4 0 2 77
a 2 4 0 2 78
a 2 4 0 2 79
a 2 4 0 2 80
a 2 4 0 2 81
a 2 4 0 2 82
a 2 4 0 2 83
a 2 4 0 2 84
a 2 4 0 2 85
a 2 4 0 2 86
a 2 4 0 2 87
a 2 4 0 2 88
a 2 4 0 2 89
a 2 4 0 2 90
a 2 4 0 2 91
a 2 4 0 2 92
a 2 4 0 2 93
a 2 4 0 2 94
a 2 4 0 2 95
a 2 4 0 2 96
a 2 4 0 2 97
a 2 4 0 2 98
a 2 4 0 2 99
a 2 4 0 2 100
a 4 2 0 2 1
a 4 2 0 2 2
a 4 2 0 2 3
a 4 2 0 2 4
a 4 2 0 2 5
a 4 2 0 2 6
a 4 2 0 2 7
a 4 2 0 2 8
a 4 2 0 2 9
a 4 2 0 2 10
a 4 2 0 2 11
a 4 2 0 2 12
a 4 2 0 2 13
a 4 2 0 2 14
a 4 2 0 2 15
a 4 2 0 2 16
a 4 2 0 2 17
a 4 2 0 2 18
a 4 2 0 2 19
a 4 2 0 2 20
a 4 2 0 2 21
a 4 2 0 2 22
a 4 2 0 2 23
a 4 2 0 2 24
a 4 2 0 2 25
a 4 2 0 2 26
a 4 2 0 2 27
a 4 2 0 2 28
a 4 2 0 2 29
a 4 2 0 2 30
a 4 2 0 2 31
a 4 2 0 2 32
a 4 2 0 2 33
a 4 2 0 2 34
a 4 2 0 2 35
a 4 2 0 2 36
a 4 2 0 2 37
a 4 2 0 2 38
a 4 2 0 2 39
a 4 2 0 2 40
a 4 2 0 2 41
a 4 2 0 2 42
a 4 2 0 2 43
a 4 2 0 2 44
a 4 2 0 2 45
a 4 2 0 2 46
a 4 2 0 2 47
a 4 2 0 2 48
a 4 2 0 2 49
a 4 2 0 2 50
a 4 2 0 2 51
a 4 2 0 2 52
a 4 2 0 2 53
a 4 2 0 2 54
a 4 2 0 2 55
a 4 2 0 2 56
a 4 2 0 2 57
a 4 2 0 2 58
a 4 2 0 2 59
a 4 2 0 2 60
a 4 2 0 2 61
a 4 2 0 2 62
a 4 2 0 2 63
a 4 2 0 2 64
a 4 2 0 2 65
a 4 2 0 2 66
a 4 2 0 2 67
a 4 2 0 2 68
a 4 2 0 2 69
a 4 2 0 2 70
a 4 2 0 2 71
a 4 2 0 2 72
a 4 2 0 2 73
a 4 2 0 2 74
a 4 2 0 2 75
a 4 2 0 2 76
a 4 2 0 2 77
a 4 2 0 2 78
a 4 2 0 2 79
a 4 2 0 2 80
a 4 2 0 2 81
a 4 2 0 2 82
a 4 2 0 2 83
a 4 2 0 2 84
a 4 2 0 2 85
a 4 2 0 2 86
a 4 2 0 2 87
a 4 2 0 2 88
a 4 2 0 2 89
a 4 2 0 2 90
a 4 2 0 2 91
a 4 2 0 2 92
a 4 2 0 2 93
a 4 2 0 2 94
a 4 2 0 2 95
a 4 2 0 2 96
a 4 2 0 2 97
a 4 2 0 2 98
a 4 2 0 2 99
a 4 2 0 2 100
c
a 2 7 0 2 1
a 2 7 0 2 2
a 2 7 0 2 3
a 2 7 0 2 4
a 2 7 0 2 5
a 2 7 0 2 6
a 2 7 0 2 7
a 2 7 0 2 8
a 2 7 0 2 9
a 2 7 0 2 10
a 2 7 0 2 11
a 2 7 0 2 12
a 2 7 0 2 13
a 2 7 0 2 14
a 2 7 0 2 15
a 2 7 0 2 16
a 2 7 0 2 17
a 2 7 0 2 18
a 2 7 0 2 19
a 2 7 0 2 20
a 2 7 0 2 21
a 2 7 0 2 22
a 2 7 0 2 23
a 2 7 0 2 24
a 2 7 0 2 25
a 2 7 0 2 26
a 2 7 0 2 27
a 2 7 0 2 28
a 2 7 0 2 29
a 2 7 0 2 30
a 2 7 0 2 31
a 2 7 0 2 32
a 2 7 0 2 33
a 2 7 0 2 34
a 2 7 0 2 35
a 2 7 0 2 36
a 2 7 0 2 37
a 2 7 0 2 38
a 2 7 0 2 39
a 2 7 0 2 40
a 2 7 0 2 41
a 2 7 0 2 42
a 2 7 0 2 43
a 2 7 0 2 44
a 2 7 0 2 45
a 2 7 0 2 46
a 2 7 0 2 47
a 2 7 0 2 48
a 2 7 0 2 49
a 2 7 0 2 50
a 2 7 0 2 51
a 2 7 0 2 52
a 2 7 0 2 53
a 2 7 0 2 54
a 2 7 0 2 55
a 2 7 0 2 56
a 2 7 0 2 57
a 2 7 0 2 58
a 2 7 0 2 59
a 2 7 0 2 60
a 2 7 0 2 61
a 2 7 0 2 62
a 2 7 0 2 63
a 2 7 0 2 64
a 2 7 0 2 65
a 2 7 0 2 66
a 2 7 0 2 67
a 2 7 0 2 68
a 2 7 0 2 69
a 2 7 0 2 70
a 2 7 0 2 71
a 2 7 0 2 72
a 2 7 0 2 73
a 2 7 0 2 74
a 2 7 0 2 75
a 2 7 0 2 76
a 2 7 0 2 77
a 2 7 0 2 78
a 2 7 0 2 79
a 2 7 0 2 80
a 2 7 0 2 81
a 2 7 0 2 82
a 2 7 0 2 83
a 2 7 0 2 84
a 2 7 0 2 85
a 2 7 0 2 86
a 2 7 0 2 87
a 2 7 0 2 88
a 2 7 0 2 89
a 2 7 0 2 90
a 2 7 0 2 91
a 2 7 0 2 92
a 2 7 0 2 93
a 2 7 0 2 94
a 2 7 0 2 95
a 2 7 0 2 96
a 2 7 0 2 97
a 2 7 0 2 98
a 2 7 0 2 99
a 2 7 0 2 100
a 7 2 0 2 1
a 7 2 0 2 2
a 7 2 0 2 3
a 7 2 0 2 4
a 7 2 0 2 5
a 7 2 0 2 6
a 7 2 0 2 7
a 7 2 0 2 8
a 7 2 0 2 9
a 7 2 0 2 10
a 7 2 0 2 11
a 7 2 0 2 12
a 7 2 0 2 13
a 7 2 0 2 14
a 7 2 0 2 15
a 7 2 0 2 16
a 7 2 0 2 17
a 7 2 0 2 18
a 7 2 0 2 19
a 7 2 0 2 20
a 7 2 0 2 21
a 7 2 0 2 22
a 7 2 0 2 23
a 7 2 0 2 24
a 7 2 0 2 25
a 7 2 0 2 26
a 7 2 0 2 27
a 7 2 0 2 28
a 7 2 0 2 29
a 7 2 0 2 30
a 7 2 0 2 31
a 7 2 0 2 32
a 7 2 0 2 33
a 7 2 0 2 34
a 7 2 0 2 35
a 7 2 0 2 36
a 7 2 0 2 37
a 7 2 0 2 38
a 7 2 0 2 39
a 7 2 0 2 40
a 7 2 0 2 41
a 7 2 0 2 42
a 7 2 0 2 43
a 7 2 0 2 44
a 7 2 0 2 45
a 7 2 0 2 46
a 7 2 0 2 47
a 7 2 0 2 48
a 7 2 0 2 49
a 7 2 0 2 50
a 7 2 0 2 51
a 7 2 0 2 52
a 7 2 0 2 53
a 7 2 0 2 54
a 7 2 0 2 55
a 7 2 0 2 56
a 7 2 0 2 57
a 7 2 0 2 58
a 7 2 0 2 59
a 7 2 0 2 60
a 7 2 0 2 61
a 7 2 0 2 62
a 7 2 0 2 63
a 7 2 0 2 64
a 7 2 0 2 65
a 7 2 0 2 66
a 7 2 0 2 67
a 7 2 0 2 68
a 7 2 0 2 69
a 7 2 0 2 70
a 7 2 0 2 71
a 7 2 0 2 72
a 7 2 0 2 73
a 7 2 0 2 74
a 7 2 0 2 75
a 7 2 0 2 76
a 7 2 0 2 77
a 7 2 0 2 78
a 7 2 0 2 79
a 7 2 0 2 80
a 7 2 0 2 81
a 7 2 0 2 82
a 7 2 0 2 83
a 7 2 0 2 84
a 7 2 0 2 85
a 7 2 0 2 86
a 7 2 0 2 87
a 7 2 0 2 88
a 7 2 0 2 89
a 7 2 0 2 90
a 7 2 0 2 91
a 7 2 0 2 92
a 7 2 0 2 93
a 7 2 0 2 94
a 7 2 0 2 95
a 7 2 0 2 96
a 7 2 0 2 97
a 7 2 0 2 98
a 7 2 0 2 99
a 7 2 0 2 100
c
a 3 5 0 2 1
a 3 5 0 2 2
a 3 5 0 2 3
a 3 5 0 2 4
a 3 5 0 2 5
a 3 5 0 2 6
a 3 5 0 2 7
a 3 5 0 2 8
a 3 5 0 2 9
a 3 5 0 2 10
a 3 5 0 2 11
a 3 5 0 2 12
a 3 5 0 2 13
a 3 5 0 2 14
a 3 5 0 2 15
a 3 5 0 2 16
a 3 5 0 2 17
a 3 5 0 2 18
a 3 5 0 2 19
a 3 5 0 2 20
a 3 5 0 2 21
a 3 5 0 2 22
a 3 5 0 2 23
a 3 5 0 2 24
a 3 5 0 2 25
a 3 5 0 2 26
a 3 5 0 2 27
a 3 5 0 2 28
a 3 5 0 2 29
a 3 5 0 2 30
a 3 5 0 2 31
a 3 5 0 2 32
a 3 5 0 2 33
a 3 5 0 2 34
a 3 5 0 2 35
a 3 5 0 2 36
a 3 5 0 2 37
a 3 5 0 2 38
a 3 5 0 2 39
a 3 5 0 2 40
a 3 5 0 2 41
a 3 5 0 2 42
a 3 5 0 2 43
a 3 5 0 2 44
a 3 5 0 2 45
a 3 5 0 2 46
a 3 5 0 2 47
a 3 5 0 2 48
a 3 5 0 2 49
a 3 5 0 2 50
a 3 5 0 2 51
a 3 5 0 2 52
a 3 5 0 2 53
a 3 5 0 2 54
a 3 5 0 2 55
a 3 5 0 2 56
a 3 5 0 2 57
a 3 5 0 2 58
a 3 5 0 2 59
a 3 5 0 2 60
a 3 5 0 2 61
a 3 5 0 2 62
a 3 5 0 2 63
a 3 5 0 2 64
a 3 5 0 2 65
a 3 5 0 2 66
a 3 5 0 2 67
a 3 5 0 2 68
a 3 5 0 2 69
a 3 5 0 2 70
a 3 5 0 2 71
a 3 5 0 2 72
a 3 5 0 2 73
a 3 5 0 2 74
a 3 5 0 2 75
a 3 5 0 2 76
a 3 5 0 2 77
a 3 5 0 2 78
a 3 5 0 2 79
a 3 5 0 2 80
a 3 5 0 2 81
a 3 5 0 2 82
a 3 5 0 2 83
a 3 5 0 2 84
a 3 5 0 2 85
a 3 5 0 2 86
a 3 5 0 2 87
a 3 5 0 2 88
a 3 5 0 2 89
a 3 5 0 2 90
a 3 5 0 2 91
a 3 5 0 2 92
a 3 5 0 2 93
a 3 5 0 2 94
a 3 5 0 2 95
a 3 5 0 2 96
a 3 5 0 2 97
a 3 5 0 2 98
a 3 5 0 2 99
a 3 5 0 2 100
a 5 3 0 2 1
a 5 3 0 2 2
a 5 3 0 2 3
a 5 3 0 2 4
a 5 3 0 2 5
a 5 3 0 2 6
a 5 3 0 2 7
a 5 3 0 2 8
a 5 3 0 2 9
a 5 3 0 2 10
a 5 3 0 2 11
a 5 3 0 2 12
a 5 3 0 2 13
a 5 3 0 2 14
a 5 3 0 2 15
a 5 3 0 2 16
a 5 3 0 2 17
a 5 3 0 2 18
a 5 3 0 2 19
a 5 3 0 2 20
a 5 3 0 2 21
a 5 3 0 2 22
a 5 3 0 2 23
a 5 3 0 2 24
a 5 3 0 2 25
a 5 3 0 2 26
a 5 3 0 2 27
a 5 3 0 2 28
a 5 3 0 2 29
a 5 3 0 2 30
a 5 3 0 2 31
a 5 3 0 2 32
a 5 3 0 2 33
a 5 3 0 2 34
a 5 3 0 2 35
a 5 3 0 2 36
a 5 3 0 2 37
a 5 3 0 2 38
a 5 3 0 2 39
a 5 3 0 2 40
a 5 3 0 2 41
a 5 3 0 2 42
a 5 3 0 2 43
a 5 3 0 2 44
a 5 3 0 2 45
a 5 3 0 2 46
a 5 3 0 2 47
a 5 3 0 2 48
a 5 3 0 2 49
a 5 3 0 2 50
a 5 3 0 2 51
a 5 3 0 2 52
a 5 3 0 2 53
a 5 3 0 2 54
a 5 3 0 2 55
a 5 3 0 2 56
a 5 3 0 2 57
a 5 3 0 2 58
a 5 3 0 2 59
a 5 3 0 2 60
a 5 3 0 2 61
a 5 3 0 2 62
a 5 3 0 2 63
a 5 3 0 2 64
a 5 3 0 2 65
a 5 3 0 2 66
a 5 3 0 2 67
a 5 3 0 2 68
a 5 3 0 2 69
a 5 3 0 2 70
a 5 3 0 2 71
a 5 3 0 2 72
a 5 3 0 2 73
a 5 3 0 2 74
a 5 3 0 2 75
a 5 3 0 2 76
a 5 3 0 2 77
a 5 3 0 2 78
a 5 3 0 2 79
a 5 3 0 2 80
a 5 3 0 2 81
a 5 3 0 2 82
a 5 3 0 2 83
a 5 3 0 2 84
a 5 3 0 2 85
a 5 3 0 2 86
a 5 3 0 2 87
a 5 3 0 2 88
a 5 3 0 2 89
a 5 3 0 2 90
a 5 3 0 2 91
a 5 3 0 2 92
a 5 3 0 2 93
a 5 3 0 2 94
a 5 3 0 2 95
a 5 3 0 2 96
a 5 3 0 2 97
a 5 3 0 2 98
a 5 3 0 2 99
a 5 3 0 2 100
c
a 3 7 0 2 1
a 3 7 0 2 2
a 3 7 0 2 3
a 3 7 0 2 4
a 3 7 0 2 5
a 3 7 0 2 6
a 3 7 0 2 7
a 3 7 0 2 8
a 3 7 0 2 9
a 3 7 0 2 10
a 3 7 0 2 11
a 3 7 0 2 12
a 3 7 0 2 13
a 3 7 0 2 14
a 3 7 0 2 15
a 3 7 0 2 16
a 3 7 0 2 17
a 3 7 0 2 18
a 3 7 0 2 19
a 3 7 0 2 20
a 3 7 0 2 21
a 3 7 0 2 22
a 3 7 0 2 23
a 3 7 0 2 24
a 3 7 0 2 25
a 3 7 0 2 26
a 3 7 0 2 27
a 3 7 0 2 28
a 3 7 0 2 29
a 3 7 0 2 30
a 3 7 0 2 31
a 3 7 0 2 32
a 3 7 0 2 33
a 3 7 0 2 34
a 3 7 0 2 35
a 3 7 0 2 36
a 3 7 0 2 37
a 3 7 0 2 38
a 3 7 0 2 39
a 3 7 0 2 40
a 3 7 0 2 41
a 3 7 0 2 42
a 3 7 0 2 43
a 3 7 0 2 44
a 3 7 0 2 45
a 3 7 0 2 46
a 3 7 0 2 47
a 3 7 0 2 48
a 3 7 0 2 49
a 3 7 0 2 50
a 3 7 0 2 51
a 3 7 0 2 52
a 3 7 0 2 53
a 3 7 0 2 54
a 3 7 0 2 55
a 3 7 0 2 56
a 3 7 0 2 57
a 3 7 0 2 58
a 3 7 0 2 59
a 3 7 0 2 60
a 3 7 0 2 61
a 3 7 0 2 62
a 3 7 0 2 63
a 3 7 0 2 64
a 3 7 0 2 65
a 3 7 0 2 66
a 3 7 0 2 67
a 3 7 0 2 68
a 3 7 0 2 69
a 3 7 0 2 70
a 3 7 0 2 71
a 3 7 0 2 72
a 3 7 0 2 73
a 3 7 0 2 74
a 3 7 0 2 75
a 3 7 0 2 76
a 3 7 0 2 77
a 3 7 0 2 78
a 3 7 0 2 79
a 3 7 0 2 80
a 3 7 0 2 81
a 3 7 0 2 82
a 3 7 0 2 83
a 3 7 0 2 84
a 3 7 0 2 85
a 3 7 0 2 86
a 3 7 0 2 87
a 3 7 0 2 88
a 3 7 0 2 89
a 3 7 0 2 90
a 3 7 0 2 91
a 3 7 0 2 92
a 3 7 0 2 93
a 3 7 0 2 94
a 3 7 0 2 95
a 3 7 0 2 96
a 3 7 0 2 97
a 3 7 0 2 98
a 3 7 0 2 99
a 3 7 0 2 100
a 7 3 0 2 1
a 7 3 0 2 2
a 7 3 0 2 3
a 7 3 0 2 4
a 7 3 0 2 5
a 7 3 0 2 6
a 7 3 0 2 7
a 7 3 0 2 8
a 7 3 0 2 9
a 7 3 0 2 10
a 7 3 0 2 11
a 7 3 0 2 12
a 7 3 0 2 13
a 7 3 0 2 14
a 7 3 0 2 15
a 7 3 0 2 16
a 7 3 0 2 17
a 7 3 0 2 18
a 7 3 0 2 19
a 7 3 0 2 20
a 7 3 0 2 21
a 7 3 0 2 22
a 7 3 0 2 23
a 7 3 0 2 24
a 7 3 0 2 25
a 7 3 0 2 26
a 7 3 0 2 27
a 7 3 0 2 28
a 7 3 0 2 29
a 7 3 0 2 30
a 7 3 0 2 31
a 7 3 0 2 32
a 7 3 0 2 33
a 7 3 0 2 34
a 7 3 0 2 35
a 7 3 0 2 36
a 7 3 0 2 37
a 7 3 0 2 38
a 7 3 0 2 39
a 7 3 0 2 40
a 7 3 0 2 41
a 7 3 0 2 42
a 7 3 0 2 43
a 7 3 0 2 44
a 7 3 0 2 45
a 7 3 0 2 46
a 7 3 0 2 47
a 7 3 0 2 48
a 7 3 0 2 49
a 7 3 0 2 50
a 7 3 0 2 51
a 7 3 0 2 52
a 7 3 0 2 53
a 7 3 0 2 54
a 7 3 0 2 55
a 7 3 0 2 56
a 7 3 0 2 57
a 7 3 0 2 58
a 7 3 0 2 59
a 7 3 0 2 60
a 7 3 0 2 61
a 7 3 0 2 62
a 7 3 0 2 63
a 7 3 0 2 64
a 7 3 0 2 65
a 7 3 0 2 66
a 7 3 0 2 67
a 7 3 0 2 68
a 7 3 0 2 69
a 7 3 0 2 70
a 7 3 0 2 71
a 7 3 0 2 72
a 7 3 0 2 73
a 7 3 0 2 74
a 7 3 0 2 75
a 7 3 0 2 76
a 7 3 0 2 77
a 7 3 0 2 78
a 7 3 0 2 79
a 7 3 0 2 80
a 7 3 0 2 81
a 7 3 0 2 82
a 7 3 0 2 83
a 7 3 0 2 84
a 7 3 0 2 85
a 7 3 0 2 86
a 7 3 0 2 87
a 7 3 0 2 88
a 7 3 0 2 89
a 7 3 0 2 90
a 7 3 0 2 91
a 7 3 0 2 92
a 7 3 0 2 93
a 7 3 0 2 94
a 7 3 0 2 95
a 7 3 0 2 96
a 7 3 0 2 97
a 7 3 0 2 98
a 7 3 0 2 99
a 7 3 0 2 100
c
a 4 5 0 2 1
a 4 5 0 2 2
a 4 5 0 2 3
a 4 5 0 2 4
a 4 5 0 2 5
a 4 5 0 2 6
a 4 5 0 2 7
a 4 5 0 2 8
a 4 5 0 2 9
a 4 5 0 2 10
a 4 5 0 2 11
a 4 5 0 2 12
a 4 5 0 2 13
a 4 5 0 2 14
a 4 5 0 2 15
a 4 5 0 2 16
a 4 5 0 2 17
a 4 5 0 2 18
a 4 5 0 2 19
a 4 5 0 2 20
a 4 5 0 2 21
a 4 5 0 2 22
a 4 5 0 2 23
a 4 5 0 2 24
a 4 5 0 2 25
a 4 5 0 2 26
a 4 5 0 2 27
a 4 5 0 2 28
a 4 5 0 2 29
a 4 5 0 2 30
a 4 5 0 2 31
a 4 5 0 2 32
a 4 5 0 2 33
a 4 5 0 2 34
a 4 5 0 2 35
a 4 5 0 2 36
a 4 5 0 2 37
a 4 5 0 2 38
a 4 5 0 2 39
a 4 5 0 2 40
a 4 5 0 2 41
a 4 5 0 2 42
a 4 5 0 2 43
a 4 5 0 2 44
a 4 5 0 2 45
a 4 5 0 2 46
a 4 5 0 2 47
a 4 5 0 2 48
a 4 5 0 2 49
a 4 5 0 2 50
a 4 5 0 2 51
a 4 5 0 2 52
a 4 5 0 2 53
a 4 5 0 2 54
a 4 5 0 2 55
a 4 5 0 2 56
a 4 5 0 2 57
a 4 5 0 2 58
a 4 5 0 2 59
a 4 5 0 2 60
a 4 5 0 2 61
a 4 5 0 2 62
a 4 5 0 2 63
a 4 5 0 2 64
a 4 5 0 2 65
a 4 5 0 2 66
a 4 5 0 2 67
a 4 5 0 2 68
a 4 5 0 2 69
a 4 5 0 2 70
a 4 5 0 2 71
a 4 5 0 2 72
a 4 5 0 2 73
a 4 5 0 2 74
a 4 5 0 2 75
a 4 5 0 2 76
a 4 5 0 2 77
a 4 5 0 2 78
a 4 5 0 2 79
a 4 5 0 2 80
a 4 5 0 2 81
a 4 5 0 2 82
a 4 5 0 2 83
a 4 5 0 2 84
a 4 5 0 2 85
a 4 5 0 2 86
a 4 5 0 2 87
a 4 5 0 2 88
a 4 5 0 2 89
a 4 5 0 2 90
a 4 5 0 2 91
a 4 5 0 2 92
a 4 5 0 2 93
a 4 5 0 2 94
a 4 5 0 2 95
a 4 5 0 2 96
a 4 5 0 2 97
a 4 5 0 2 98
a 4 5 0 2 99
a 4 5 0 2 100
a 5 4 0 2 1
a 5 4 0 2 2
a 5 4 0 2 3
a 5 4 0 2 4
a 5 4 0 2 5
a 5 4 0 2 6
a 5 4 0 2 7
a 5 4 0 2 8
a 5 4 0 2 9
a 5 4 0 2 10
a 5 4 0 2 11
a 5 4 0 2 12
a 5 4 0 2 13
a 5 4 0 2 14
a 5 4 0 2 15
a 5 4 0 2 16
a 5 4 0 2 17
a 5 4 0 2 18
a 5 4 0 2 19
a 5 4 0 2 20
a 5 4 0 2 21
a 5 4 0 2 22
a 5 4 0 2 23
a 5 4 0 2 24
a 5 4 0 2 25
a 5 4 0 2 26
a 5 4 0 2 27
a 5 4 0 2 28
a 5 4 0 2 29
a 5 4 0 2 30
a 5 4 0 2 31
a 5 4 0 2 32
a 5 4 0 2 33
a 5 4 0 2 34
a 5 4 0 2 35
a 5 4 0 2 36
a 5 4 0 2 37
a 5 4 0 2 38
a 5 4 0 2 39
a 5 4 0 2 40
a 5 4 0 2 41
a 5 4 0 2 42
a 5 4 0 2 43
a 5 4 0 2 44
a 5 4 0 2 45
a 5 4 0 2 46
a 5 4 0 2 47
a 5 4 0 2 48
a 5 4 0 2 49
a 5 4 0 2 50
a 5 4 0 2 51
a 5 4 0 2 52
a 5 4 0 2 53
a 5 4 0 2 54
a 5 4 0 2 55
a 5 4 0 2 56
a 5 4 0 2 57
a 5 4 0 2 58
a 5 4 0 2 59
a 5 4 0 2 60
a 5 4 0 2 61
a 5 4 0 2 62
a 5 4 0 2 63
a 5 4 0 2 64
a 5 4 0 2 65
a 5 4 0 2 66
a 5 4 0 2 67
a 5 4 0 2 68
a 5 4 0 2 69
a 5 4 0 2 70
a 5 4 0 2 71
a 5 4 0 2 72
a 5 4 0 2 73
a 5 4 0 2 74
a 5 4 0 2 75
a 5 4 0 2 76
a 5 4 0 2 77
a 5 4 0 2 78
a 5 4 0 2 79
a 5 4 0 2 80
a 5 4 0 2 81
a 5 4 0 2 82
a 5 4 0 2 83
a 5 4 0 2 84
a 5 4 0 2 85
a 5 4 0 2 86
a 5 4 0 2 87
a 5 4 0 2 88
a 5 4 0 2 89
a 5 4 0 2 90
a 5 4 0 2 91
a 5 4 0 2 92
a 5 4 0 2 93
a 5 4 0 2 94
a 5 4 0 2 95
a 5 4 0 2 96
a 5 4 0 2 97
a 5 4 0 2 98
a 5 4 0 2 99
a 5 4 0 2 100
c
a 4 6 0 2 1
a 4 6 0 2 2
a 4 6 0 2 3
a 4 6 0 2 4
a 4 6 0 2 5
a 4 6 0 2 6
a 4 6 0 2 7
a 4 6 0 2 8
a 4 6 0 2 9
a 4 6 0 2 10
a 4 6 0 2 11
a 4 6 0 2 12
a 4 6 0 2 13
a 4 6 0 2 14
a 4 6 0 2 15
a 4 6 0 2 16
a 4 6 0 2 17
a 4 6 0 2 18
a 4 6 0 2 19
a 4 6 0 2 20
a 4 6 0 2 21
a 4 6 0 2 22
a 4 6 0 2 23
a 4 6 0 2 24
a 4 6 0 2 25
a 4 6 0 2 26
a 4 6 0 2 27
a 4 6 0 2 28
a 4 6 0 2 29
a 4 6 0 2 30
a 4 6 0 2 31
a 4 6 0 2 32
a 4 6 0 2 33
a 4 6 0 2 34
a 4 6 0 2 35
a 4 6 0 2 36
a 4 6 0 2 37
a 4 6 0 2 38
a 4 6 0 2 39
a 4 6 0 2 40
a 4 6 0 2 41
a 4 6 0 2 42
a 4 6 0 2 43
a 4 6 0 2 44
a 4 6 0 2 45
a 4 6 0 2 46
a 4 6 0 2 47
a 4 6 0 2 48
a 4 6 0 2 49
a 4 6 0 2 50
a 4 6 0 2 51
a 4 6 0 2 52
a 4 6 0 2 53
a 4 6 0 2 54
a 4 6 0 2 55
a 4 6 0 2 56
a 4 6 0 2 57
a 4 6 0 2 58
a 4 6 0 2 59
a 4 6 0 2 60
a 4 6 0 2 61
a 4 6 0 2 62
a 4 6 0 2 63
a 4 6 0 2 64
a 4 6 0 2 65
a 4 6 0 2 66
a 4 6 0 2 67
a 4 6 0 2 68
a 4 6 0 2 69
a 4 6 0 2 70
a 4 6 0 2 71
a 4 6 0 2 72
a 4 6 0 2 73
a 4 6 0 2 74
a 4 6 0 2 75
a 4 6 0 2 76
a 4 6 0 2 77
a 4 6 0 2 78
a 4 6 0 2 79
a 4 6 0 2 80
a 4 6 0 2 81
a 4 6 0 2 82
a 4 6 0 2 83
a 4 6 0 2 84
a 4 6 0 2 85
a 4 6 0 2 86
a 4 6 0 2 87
a 4 6 0 2 88
a 4 6 0 2 89
a 4 6 0 2 90
a 4 6 0 2 91
a 4 6 0 2 92
a 4 6 0 2 93
a 4 6 0 2 94
a 4 6 0 2 95
a 4 6 0 2 96
a 4 6 0 2 97
a 4 6 0 2 98
a 4 6 0 2 99
a 4 6 0 2 100
a 6 4 0 2 1
a 6 4 0 2 2
a 6 4 0 2 3
a 6 4 0 2 4
a 6 4 0 2 5
a 6 4 0 2 6
a 6 4 0 2 7
a 6 4 0 2 8
a 6 4 0 2 9
a 6 4 0 2 10
a 6 4 0 2 11
a 6 4 0 2 12
a 6 4 0 2 13
a 6 4 0 2 14
a 6 4 0 2 15
a 6 4 0 2 16
a 6 4 0 2 17
a 6 4 0 2 18
a 6 4 0 2 19
a 6 4 0 2 20
a 6 4 0 2 21
a 6 4 0 2 22
a 6 4 0 2 23
a 6 4 0 2 24
a 6 4 0 2 25
a 6 4 0 2 26
a 6 4 0 2 27
a 6 4 0 2 28
a 6 4 0 2 29
a 6 4 0 2 30
a 6 4 0 2 31
a 6 4 0 2 32
a 6 4 0 2 33
a 6 4 0 2 34
a 6 4 0 2 35
a 6 4 0 2 36
a 6 4 0 2 37
a 6 4 0 2 38
a 6 4 0 2 39
a 6 4 0 2 40
a 6 4 0 2 41
a 6 4 0 2 42
a 6 4 0 2 43
a 6 4 0 2 44
a 6 4 0 2 45
a 6 4 0 2 46
a 6 4 0 2 47
a 6 4 0 2 48
a 6 4 0 2 49
a 6 4 0 2 50
a 6 4 0 2 51
a 6 4 0 2 52
a 6 4 0 2 53
a 6 4 0 2 54
a 6 4 0 2 55
a 6 4 0 2 56
a 6 4 0 2 57
a 6 4 0 2 58
a 6 4 0 2 59
a 6 4 0 2 60
a 6 4 0 2 61
a 6 4 0 2 62
a 6 4 0 2 63
a 6 4 0 2 64
a 6 4 0 2 65
a 6 4 0 2 66
a 6 4 0 2 67
a 6 4 0 2 68
a 6 4 0 2 69
a 6 4 0 2 70
a 6 4 0 2 71
a 6 4 0 2 72
a 6 4 0 2 73
a 6 4 0 2 74
a 6 4 0 2 75
a 6 4 0 2 76
a 6 4 0 2 77
a 6 4 0 2 78
a 6 4 0 2 79
a 6 4 0 2 80
a 6 4 0 2 81
a 6 4 0 2 82
a 6 4 0 2 83
a 6 4 0 2 84
a 6 4 0 2 85
a 6 4 0 2 86
a 6 4 0 2 87
a 6 4 0 2 88
a 6 4 0 2 89
a 6 4 0 2 90
a 6 4 0 2 91
a 6 4 0 2 92
a 6 4 0 2 93
a 6 4 0 2 94
a 6 4 0 2 95
a 6 4 0 2 96
a 6 4 0 2 97
a 6 4 0 2 98
a 6 4 0 2 99
a 6 4 0 2 100
c
a 4 7 0 2 1
a 4 7 0 2 2
a 4 7 0 2 3
a 4 7 0 2 4
a 4 7 0 2 5
a 4 7 0 2 6
a 4 7 0 2 7
a 4 7 0 2 8
a 4 7 0 2 9
a 4 7 0 2 10
a 4 7 0 2 11
a 4 7 0 2 12
a 4 7 0 2 13
a 4 7 0 2 14
a 4 7 0 2 15
a 4 7 0 2 16
a 4 7 0 2 17
a 4 7 0 2 18
a 4 7 0 2 19
a 4 7 0 2 20
a 4 7 0 2 21
a 4 7 0 2 22
a 4 7 0 2 23
a 4 7 0 2 24
a 4 7 0 2 25
a 4 7 0 2 26
a 4 7 0 2 27
a 4 7 0 2 28
a 4 7 0 2 29
a 4 7 0 2 30
a 4 7 0 2 31
a 4 7 0 2 32
a 4 7 0 2 33
a 4 7 0 2 34
a 4 7 0 2 35
a 4 7 0 2 36
a 4 7 0 2 37
a 4 7 0 2 38
a 4 7 0 2 39
a 4 7 0 2 40
a 4 7 0 2 41
a 4 7 0 2 42
a 4 7 0 2 43
a 4 7 0 2 44
a 4 7 0 2 45
a 4 7 0 2 46
a 4 7 0 2 47
a 4 7 0 2 48
a 4 7 0 2 49
a 4 7 0 2 50
a 4 7 0 2 51
a 4 7 0 2 52
a 4 7 0 2 53
a 4 7 0 2 54
a 4 7 0 2 55
a 4 7 0 2 56
a 4 7 0 2 57
a 4 7 0 2 58
a 4 7 0 2 59
a 4 7 0 2 60
a 4 7 0 2 61
a 4 7 0 2 62
a 4 7 0 2 63
a 4 7 0 2 64
a 4 7 0 2 65
a 4 7 0 2 66
a 4 7 0 2 67
a 4 7 0 2 68
a 4 7 0 2 69
a 4 7 0 2 70
a 4 7 0 2 71
a 4 7 0 2 72
a 4 7 0 2 73
a 4 7 0 2 74
a 4 7 0 2 75
a 4 7 0 2 76
a 4 7 0 2 77
a 4 7 0 2 78
a 4 7 0 2 79
a 4 7 0 2 80
a 4 7 0 2 81
a 4 7 0 2 82
a 4 7 0 2 83
a 4 7 0 2 84
a 4 7 0 2 85
a 4 7 0 2 86
a 4 7 0 2 87
a 4 7 0 2 88
a 4 7 0 2 89
a 4 7 0 2 90
a 4 7 0 2 91
a 4 7 0 2 92
a 4 7 0 2 93
a 4 7 0 2 94
a 4 7 0 2 95
a 4 7 0 2 96
a 4 7 0 2 97
a 4 7 0 2 98
a 4 7 0 2 99
a 4 7 0 2 100
a 7 4 0 2 1
a 7 4 0 2 2
a 7 4 0 2 3
a 7 4 0 2 4
a 7 4 0 2 5
a 7 4 0 2 6
a 7 4 0 2 7
a 7 4 0 2 8
a 7 4 0 2 9
a 7 4 0 2 10
a 7 4 0 2 11
a 7 4 0 2 12
a 7 4 0 2 13
a 7 4 0 2 14
a 7 4 0 2 15
a 7 4 0 2 16
a 7 4 0 2 17
a 7 4 0 2 18
a 7 4 0 2 19
a 7 4 0 2 20
a 7 4 0 2 21
a 7 4 0 2 22
a 7 4 0 2 23
a 7 4 0 2 24
a 7 4 0 2 25
a 7 4 0 2 26
a 7 4 0 2 27
a 7 4 0 2 28
a 7 4 0 2 29
a 7 4 0 2 30
a 7 4 0 2 31
a 7 4 0 2 32
a 7 4 0 2 33
a 7 4 0 2 34
a 7 4 0 2 35
a 7 4 0 2 36
a 7 4 0 2 37
a 7 4 0 2 38
a 7 4 0 2 39
a 7 4 0 2 40
a 7 4 0 2 41
a 7 4 0 2 42
a 7 4 0 2 43
a 7 4 0 2 44
a 7 4 0 2 45
a 7 4 0 2 46
a 7 4 0 2 47
a 7 4 0 2 48
a 7 4 0 2 49
a 7 4 0 2 50
a 7 4 0 2 51
a 7 4 0 2 52
a 7 4 0 2 53
a 7 4 0 2 54
a 7 4 0 2 55
a 7 4 0 2 56
a 7 4 0 2 57
a 7 4 0 2 58
a 7 4 0 2 59
a 7 4 0 2 60
a 7 4 0 2 61
a 7 4 0 2 62
a 7 4 0 2 63
a 7 4 0 2 64
a 7 4 0 2 65
a 7 4 0 2 66
a 7 4 0 2 67
a 7 4 0 2 68
a 7 4 0 2 69
a 7 4 0 2 70
a 7 4 0 2 71
a 7 4 0 2 72
a 7 4 0 2 73
a 7 4 0 2 74
a 7 4 0 2 75
a 7 4 0 2 76
a 7 4 0 2 77
a 7 4 0 2 78
a 7 4 0 2 79
a 7 4 0 2 80
a 7 4 0 2 81
a 7 4 0 2 82
a 7 4 0 2 83
a 7 4 0 2 84
a 7 4 0 2 85
a 7 4 0 2 86
a 7 4 0 2 87
a 7 4 0 2 88
a 7 4 0 2 89
a 7 4 0 2 90
a 7 4 0 2 91
a 7 4 0 2 92
a 7 4 0 2 93
a 7 4 0 2 94
a 7 4 0 2 95
a 7 4 0 2 96
a 7 4 0 2 97
a 7 4 0 2 98
a 7 4 0 2 99
a 7 4 0 2 100
c
a 5 6 0 2 1
a 5 6 0 2 2
a 5 6 0 2 3
a 5 6 0 2 4
a 5 6 0 2 5
a 5 6 0 2 6
a 5 6 0 2 7
a 5 6 0 2 8
a 5 6 0 2 9
a 5 6 0 2 10
a 5 6 0 2 11
a 5 6 0 2 12
a 5 6 0 2 13
a 5 6 0 2 14
a 5 6 0 2 15
a 5 6 0 2 16
a 5 6 0 2 17
a 5 6 0 2 18
a 5 6 0 2 19
a 5 6 0 2 20
a 5 6 0 2 21
a 5 6 0 2 22
a 5 6 0 2 23
a 5 6 0 2 24
a 5 6 0 2 25
a 5 6 0 2 26
a 5 6 0 2 27
a 5 6 0 2 28
a 5 6 0 2 29
a 5 6 0 2 30
a 5 6 0 2 31
a 5 6 0 2 32
a 5 6 0 2 33
a 5 6 0 2 34
a 5 6 0 2 35
a 5 6 0 2 36
a 5 6 0 2 37
a 5 6 0 2 38
a 5 6 0 2 39
a 5 6 0 2 40
a 5 6 0 2 41
a 5 6 0 2 42
a 5 6 0 2 43
a 5 6 0 2 44
a 5 6 0 2 45
a 5 6 0 2 46
a 5 6 0 2 47
a 5 6 0 2 48
a 5 6 0 2 49
a 5 6 0 2 50
a 5 6 0 2 51
a 5 6 0 2 52
a 5 6 0 2 53
a 5 6 0 2 54
a 5 6 0 2 55
a 5 6 0 2 56
a 5 6 0 2 57
a 5 6 0 2 58
a 5 6 0 2 59
a 5 6 0 2 60
a 5 6 0 2 61
a 5 6 0 2 62
a 5 6 0 2 63
a 5 6 0 2 64
a 5 6 0 2 65
a 5 6 0 2 66
a 5 6 0 2 67
a 5 6 0 2 68
a 5 6 0 2 69
a 5 6 0 2 70
a 5 6 0 2 71
a 5 6 0 2 72
a 5 6 0 2 73
a 5 6 0 2 74
a 5 6 0 2 75
a 5 6 0 2 76
a 5 6 0 2 77
a 5 6 0 2 78
a 5 6 0 2 79
a 5 6 0 2 80
a 5 6 0 2 81
a 5 6 0 2 82
a 5 6 0 2 83
a 5 6 0 2 84
a 5 6 0 2 85
a 5 6 0 2 86
a 5 6 0 2 87
a 5 6 0 2 88
a 5 6 0 2 89
a 5 6 0 2 90
a 5 6 0 2 91
a 5 6 0 2 92
a 5 6 0 2 93
a 5 6 0 2 94
a 5 6 0 2 95
a 5 6 0 2 96
a 5 6 0 2 97
a 5 6 0 2 98
a 5 6 0 2 99
a 5 6 0 2 100
a 6 5 0 2 1
a 6 5 0 2 2
a 6 5 0 2 3
a 6 5 0 2 4
a 6 5 0 2 5
a 6 5 0 2 6
a 6 5 0 2 7
a 6 5 0 2 8
a 6 5 0 2 9
a 6 5 0 2 10
a 6 5 0 2 11
a 6 5 0 2 12
a 6 5 0 2 13
a 6 5 0 2 14
a 6 5 0 2 15
a 6 5 0 2 16
a 6 5 0 2 17
a 6 5 0 2 18
a 6 5 0 2 19
a 6 5 0 2 20
a 6 5 0 2 21
a 6 5 0 2 22
a 6 5 0 2 23
a 6 5 0 2 24
a 6 5 0 2 25
a 6 5 0 2 26
a 6 5 0 2 27
a 6 5 0 2 28
a 6 5 0 2 29
a 6 5 0 2 30
a 6 5 0 2 31
a 6 5 0 2 32
a 6 5 0 2 33
a 6 5 0 2 34
a 6 5 0 2 35
a 6 5 0 2 36
a 6 5 0 2 37
a 6 5 0 2 38
a 6 5 0 2 39
a 6 5 0 2 40
a 6 5 0 2 41
a 6 5 0 2 42
a 6 5 0 2 43
a 6 5 0 2 44
a 6 5 0 2 45
a 6 5 0 2 46
a 6 5 0 2 47
a 6 5 0 2 48
a 6 5 0 2 49
a 6 5 0 2 50
a 6 5 0 2 51
a 6 5 0 2 52
a 6 5 0 2 53
a 6 5 0 2 54
a 6 5 0 2 55
a 6 5 0 2 56
a 6 5 0 2 57
a 6 5 0 2 58
a 6 5 0 2 59
a 6 5 0 2 60
a 6 5 0 2 61
a 6 5 0 2 62
a 6 5 0 2 63
a 6 5 0 2 64
a 6 5 0 2 65
a 6 5 0 2 66
a 6 5 0 2 67
a 6 5 0 2 68
a 6 5 0 2 69
a 6 5 0 2 70
a 6 5 0 2 71
a 6 5 0 2 72
a 6 5 0 2 73
a 6 5 0 2 74
a 6 5 0 2 75
a 6 5 0 2 76
a 6 5 0 2 77
a 6 5 0 2 78
a 6 5 0 2 79
a 6 5 0 2 80
a 6 5 0 2 81
a 6 5 0 2 82
a 6 5 0 2 83
a 6 5 0 2 84
a 6 5 0 2 85
a 6 5 0 2 86
a 6 5 0 2 87
a 6 5 0 2 88
a 6 5 0 2 89
a 6 5 0 2 90
a 6 5 0 2 91
a 6 5 0 2 92
a 6 5 0 2 93
a 6 5 0 2 94
a 6 5 0 2 95
a 6 5 0 2 96
a 6 5 0 2 97
a 6 5 0 2 98
a 6 5 0 2 99
a 6 5 0 2 100
c
a 5 7 0 2 1
a 5 7 0 2 2
a 5 7 0 2 3
a 5 7 0 2 4
a 5 7 0 2 5
a 5 7 0 2 6
a 5 7 0 2 7
a 5 7 0 2 8
a 5 7 0 2 9
a 5 7 0 2 10
a 5 7 0 2 11
a 5 7 0 2 12
a 5 7 0 2 13
a 5 7 0 2 14
a 5 7 0 2 15
a 5 7 0 2 16
a 5 7 0 2 17
a 5 7 0 2 18
a 5 7 0 2 19
a 5 7 0 2 20
a 5 7 0 2 21
a 5 7 0 2 22
a 5 7 0 2 23
a 5 7 0 2 24
a 5 7 0 2 25
a 5 7 0 2 26
a 5 7 0 2 27
a 5 7 0 2 28
a 5 7 0 2 29
a 5 7 0 2 30
a 5 7 0 2 31
a 5 7 0 2 32
a 5 7 0 2 33
a 5 7 0 2 34
a 5 7 0 2 35
a 5 7 0 2 36
a 5 7 0 2 37
a 5 7 0 2 38
a 5 7 0 2 39
a 5 7 0 2 40
a 5 7 0 2 41
a 5 7 0 2 42
a 5 7 0 2 43
a 5 7 0 2 44
a 5 7 0 2 45
a 5 7 0 2 46
a 5 7 0 2 47
a 5 7 0 2 48
a 5 7 0 2 49
a 5 7 0 2 50
a 5 7 0 2 51
a 5 7 0 2 52
a 5 7 0 2 53
a 5 7 0 2 54
a 5 7 0 2 55
a 5 7 0 2 56
a 5 7 0 2 57
a 5 7 0 2 58
a 5 7 0 2 59
a 5 7 0 2 60
a 5 7 0 2 61
a 5 7 0 2 62
a 5 7 0 2 63
a 5 7 0 2 64
a 5 7 0 2 65
a 5 7 0 2 66
a 5 7 0 2 67
a 5 7 0 2 68
a 5 7 0 2 69
a 5 7 0 2 70
a 5 7 0 2 71
a 5 7 0 2 72
a 5 7 0 2 73
a 5 7 0 2 74
a 5 7 0 2 75
a 5 7 0 2 76
a 5 7 0 2 77
a 5 7 0 2 78
a 5 7 0 2 79
a 5 7 0 2 80
a 5 7 0 2 81
a 5 7 0 2 82
a 5 7 0 2 83
a 5 7 0 2 84
a 5 7 0 2 85
a 5 7 0 2 86
a 5 7 0 2 87
a 5 7 0 2 88
a 5 7 0 2 89
a 5 7 0 2 90
a 5 7 0 2 91
a 5 7 0 2 92
a 5 7 0 2 93
a 5 7 0 2 94
a 5 7 0 2 95
a 5 7 0 2 96
a 5 7 0 2 97
a 5 7 0 2 98
a 5 7 0 2 99
a 5 7 0 2 100
a 7 5 0 2 1
a 7 5 0 2 2
a 7 5 0 2 3
a 7 5 0 2 4
a 7 5 0 2 5
a 7 5 0 2 6
a 7 5 0 2 7
a 7 5 0 2 8
a 7 5 0 2 9
a 7 5 0 2 10
a 7 5 0 2 11
a 7 5 0 2 12
a 7 5 0 2 13
a 7 5 0 2 14
a 7 5 0 2 15
a 7 5 0 2 16
a 7 5 0 2 17
a 7 5 0 2 18
a 7 5 0 2 19
a 7 5 0 2 20
a 7 5 0 2 21
a 7 5 0 2 22
a 7 5 0 2 23
a 7 5 0 2 24
a 7 5 0 2 25
a 7 5 0 2 26
a 7 5 0 2 27
a 7 5 0 2 28
a 7 5 0 2 29
a 7 5 0 2 30
a 7 5 0 2 31
a 7 5 0 2 32
a 7 5 0 2 33
a 7 5 0 2 34
a 7 5 0 2 35
a 7 5 0 2 36
a 7 5 0 2 37
a 7 5 0 2 38
a 7 5 0 2 39
a 7 5 0 2 40
a 7 5 0 2 41
a 7 5 0 2 42
a 7 5 0 2 43
a 7 5 0 2 44
a 7 5 0 2 45
a 7 5 0 2 46
a 7 5 0 2 47
a 7 5 0 2 48
a 7 5 0 2 49
a 7 5 0 2 50
a 7 5 0 2 51
a 7 5 0 2 52
a 7 5 0 2 53
a 7 5 0 2 54
a 7 5 0 2 55
a 7 5 0 2 56
a 7 5 0 2 57
a 7 5 0 2 58
a 7 5 0 2 59
a 7 5 0 2 60
a 7 5 0 2 61
a 7 5 0 2 62
a 7 5 0 2 63
a 7 5 0 2 64
a 7 5 0 2 65
a 7 5 0 2 66
a 7 5 0 2 67
a 7 5 0 2 68
a 7 5 0 2 69
a 7 5 0 2 70
a 7 5 0 2 71
a 7 5 0 2 72
a 7 5 0 2 73
a 7 5 0 2 74
a 7 5 0 2 75
a 7 5 0 2 76
a 7 5 0 2 77
a 7 5 0 2 78
a 7 5 0 2 79
a 7 5 0 2 80
a 7 5 0 2 81
a 7 5 0 2 82
a 7 5 0 2 83
a 7 5 0 2 84
a 7 5 0 2 85
a 7 5 0 2 86
a 7 5 0 2 87
a 7 5 0 2 88
a 7 5 0 2 89
a 7 5 0 2 90
a 7 5 0 2 91
a 7 5 0 2 92
a 7 5 0 2 93
a 7 5 0 2 94
a 7 5 0 2 95
a 7 5 0 2 96
a 7 5 0 2 97
a 7 5 0 2 98
a 7 5 0 2 99
a 7 5 0 2 100
c
c eof
